Tried aggregator 2 times.
MIP Presolve eliminated 20 rows and 4 columns.
Aggregator did 4 substitutions.
Reduced MIP has 7 rows, 6 columns, and 23 nonzeros.
Reduced MIP has 0 binaries, 0 generals, 0 SOSs, and 0 indicators.
Probing time =    0.00 sec.
Tried aggregator 1 time.
Presolve time =    0.02 sec.
Probing time =    0.00 sec.
MIP emphasis: balance optimality and feasibility.
MIP search method: dynamic search.
Parallel mode: none, using 1 thread.
Root relaxation solution time =    0.04 sec.

        Nodes                                         Cuts/
   Node  Left     Objective  IInf  Best Integer    Best Bound    ItCnt     Gap

*     0     0      integral     0       50.0000       50.0000        3    0.00%
Elapsed real time =   0.06 sec. (tree size =  0.00 MB, solutions = 1)

Root node processing (before b&c):
  Real time             =    0.04
Sequential b&c:
  Real time             =    0.00
                          -------
Total (root+branch&cut) =    0.04 sec.
Solution status 101.
Objective value 50

Elapsed time : 0.000 
